NAME : local_5
TYPE : ATSP
DIMENSION : 9
EDGE_WEIGHT_TYPE : EXPLICIT
EDGE_WEIGHT_FORMAT : FULL_MATRIX
EDGE_WEIGHT_SECTION
0 10000000 10000000 505 10000000 10000000 463 769 817 
0 0 590 10000000 851 898 846 740 522 
0 590 0 10000000 459 834 10000000 10000000 1024 
0 10000000 10000000 0 10000000 931 546 948 813 
0 851 459 10000000 0 543 10000000 10000000 10000000 
0 898 834 931 543 0 10000000 10000000 10000000 
0 846 10000000 546 10000000 10000000 0 413 398 
0 740 10000000 948 10000000 10000000 413 0 314 
0 10000000 10000000 10000000 10000000 10000000 10000000 10000000 0 
EOF